nbNodes = 12;
nbVehi = 5;
nbServi = 5;

e = 
 [|    0,  477,   58,   89,  227,  222,  266,  251,   17,  129,  257,    0,
 |    0,  360,  292,  370,  332,  100,  313,  276,  130,  287,   24,    0,
 |    0,  160,  173,   50,  297,  418,  217,  262,  165,  427,  208,    0,
 |    0,  120,  142,  442,  311,  179,  306,  176,  299,  204,  405,    0,
 |    0,  203,  453,  184,  165,  183,  191,  443,  234,  155,  186,    0,
 |];

l = 
 [| 480, 523, 109, 135, 284, 268, 317, 282,  71, 187, 300, 480,
 | 480, 395, 343, 418, 380, 149, 357, 326, 178, 346,  56, 480,
 | 480, 199, 209,  90, 331, 476, 275, 293, 211, 471, 253, 480,
 | 480, 162, 177, 473, 347, 214, 349, 234, 349, 250, 447, 480,
 | 480, 243, 492, 241, 223, 237, 232, 481, 269, 192, 224, 480,
 |];

a = 
 [|  1,  1,  0,  0,  0,
 |  0,  1,  1,  0,  0,
 |  1,  0,  1,  1,  1,
 |  1,  0,  1,  1,  1,
 |  0,  1,  1,  0,  1,
 |];

p = array3d(1..nbNodes,1..nbVehi,1..nbServi,
[  0,  0,  0,  0,  0,	  0,  0,  0,  0,  0,	  0,  0,  0,  0,  0,	  0,  0,  0,  0,  0,	  0,  0,  0,  0,  0,	
  9, 12, 12, 13, 19,	  9,  7, 28,  8, 28,	 18, 26, 20, 19, 14,	 23, 28,  5, 20,  7,	 16, 24, 16, 12, 23,	
 12, 20, 14, 18, 23,	 15, 22,  8, 24,  7,	 24, 29,  9, 22,  7,	  8, 12, 28, 25, 26,	 14, 18, 24, 15, 11,	
 28, 28,  5, 14, 10,	 23, 23, 27,  7, 13,	 23, 19,  5, 26, 14,	  9, 22, 13, 16, 14,	 17, 19, 21, 17, 16,	
 19, 27,  5, 13, 12,	 11, 11, 12, 13, 22,	 17,  6, 15, 17, 11,	 25, 10, 25, 27,  8,	  9,  6, 25, 19, 17,	
 11,  8,  8, 27, 21,	 20, 18, 18, 22, 26,	 27,  5,  9,  9, 13,	 28, 23, 16, 15, 10,	 22, 10, 15, 20,  7,	
 18, 26,  8, 15, 18,	 23, 21, 21, 26, 20,	 12, 18,  8, 27, 10,	  6, 24, 10, 12, 28,	 18, 10, 22,  5, 20,	
 27, 24, 25, 15, 16,	 27,  5, 13,  8, 16,	 28, 28,  7, 19, 24,	 23, 27, 15, 26, 24,	 20,  5, 21, 26, 12,	
 19, 16, 18, 11, 18,	  8, 11, 13,  6, 23,	 26,  5, 23,  9,  8,	  9,  9,  8, 14, 24,	 28,  7, 23, 13,  5,	
 19,  5,  5, 10, 26,	 13, 25, 13, 28,  8,	 26,  6, 16, 11,  9,	  9,  8, 10, 28, 14,	 15,  9, 19, 19, 18,	
 15, 19, 22,  8, 29,	 23, 22, 29, 25, 28,	 26, 10, 23, 11,  8,	 28,  9, 12, 15, 18,	 16, 21, 23, 21, 19,	
  0,  0,  0,  0,  0,	  0,  0,  0,  0,  0,	  0,  0,  0,  0,  0,	  0,  0,  0,  0,  0,	  0,  0,  0,  0,  0,	
]);

rs = 
[|true,true,true,true,true,
 |false,false,true,false,false,
 |false,true,false,false,false,
 |false,false,false,true,false,
 |false,true,false,false,false,
 |false,true,false,false,false,
 |false,false,false,true,false,
 |true,false,false,false,false,
 |false,false,false,false,true,
 |false,false,false,true,false,
 |false,false,false,false,true,
 |true,true,true,true,true,
 |];

d=[|0, 26, 24, 8, 21, 0, 12, 25, 6, 11, 10, 0, 
|26, 0, 12, 32, 44, 26, 30, 32, 28, 16, 37, 26, 
|24, 12, 0, 31, 37, 24, 31, 21, 28, 17, 34, 24, 
|8, 32, 31, 0, 24, 8, 6, 34, 4, 16, 7, 8, 
|21, 44, 37, 24, 0, 21, 30, 24, 25, 31, 17, 21, 
|0, 26, 24, 8, 21, 0, 12, 25, 6, 11, 10, 0, 
|12, 30, 31, 6, 30, 12, 0, 37, 5, 14, 13, 12, 
|25, 32, 21, 34, 24, 25, 37, 0, 32, 28, 31, 25, 
|6, 28, 28, 4, 25, 6, 5, 32, 0, 12, 10, 6, 
|11, 16, 17, 16, 31, 11, 14, 28, 12, 0, 21, 11, 
|10, 37, 34, 7, 17, 10, 13, 31, 10, 21, 0, 10, 
|0, 26, 24, 8, 21, 0, 12, 25, 6, 11, 10, 0, 
|];

%coord=[ (0,0), (-25,10), (-24,-2), (7,5), (9,-19), (0,0), (5,11), (-15,-21), (3,6), (-9,7), (10,-2), (0,0), ];

